RT is False
Default write of storage_offers_DA.csv just to have a file (but constraint should be inactive)
Reading model...
...model read.
creating competitive generators file...
...competitive generators recorded.
Loading data...
.. day-ahead data with real-time VRE data read.
Compiling instance...
...instance created.
Creating Offer Mitigation (model will solve as dispatch if TRUE)...
Solving...

Welcome to IBM(R) ILOG(R) CPLEX(R) Interactive Optimizer 12.8.0.0
  with Simplex, Mixed Integer & Barrier Optimizers
5725-A06 5725-A29 5724-Y48 5724-Y49 5724-Y54 5724-Y55 5655-Y21
Copyright IBM Corp. 1988, 2017.  All Rights Reserved.

Type 'help' for a list of available commands.
Type 'help' followed by a command name for more
information on commands.

CPLEX> Logfile 'cplex.log' closed.
Logfile 'C:\Users\llavi\Desktop\test919\logs\tmp76n9f61o.cplex.log' open.
CPLEX> New value for parallel optimization mode: -1
CPLEX> New value for mixed integer optimality gap tolerance: 0.01
CPLEX> New value for integrality tolerance: 1e-09
CPLEX> New value for feasibility tolerance: 0.01
CPLEX> New value for deterministic time limit in ticks: 75000
CPLEX> Problem 'C:\Users\llavi\Desktop\test919\logs\tmpqt_gfyww.pyomo.lp' read.
Read time = 0.06 sec. (3.03 ticks)
CPLEX> Problem name         : C:\Users\llavi\Desktop\test919\logs\tmpqt_gfyww.pyomo.lp
Objective sense      : Minimize
Variables            :   26465  [Nneg: 1,  Box: 22000,  Free: 4464]
Objective nonzeros   :    2496
Linear constraints   :   27515  [Less: 14006,  Greater: 4416,  Equal: 9093]
  Nonzeros           :   89171
  RHS nonzeros       :   12269

Variables            : Min LB: -5000.000        Max UB: 1000000.       
Objective nonzeros   : Min   : 15.73158         Max   : 124.0997       
Linear constraints   :
  Nonzeros           : Min   : 0.8500000        Max   : 3000.000       
  RHS nonzeros       : Min   : 0.7833333        Max   : 5000.000       
CPLEX> CPXPARAM_Simplex_Tolerances_Feasibility          0.01
CPXPARAM_Parallel                                -1
CPXPARAM_DetTimeLimit                            75000
CPXPARAM_MIP_Tolerances_MIPGap                   0.01
CPXPARAM_MIP_Tolerances_Integrality              1.0000000000000001e-09
Parallel mode: opportunistic, using up to 4 threads for concurrent optimization.
Tried aggregator 1 time.
LP Presolve eliminated 21401 rows and 15895 columns.
Aggregator did 722 substitutions.
Reduced LP has 5392 rows, 9848 columns, and 31764 nonzeros.
Presolve time = 0.03 sec. (22.46 ticks)

Iteration log . . .
Iteration:     1   Dual objective     =             0.000000
Perturbation started.
Iteration:   101   Dual objective     =             0.000000
Iteration:   359   Dual objective     =             1.352479
Iteration:   630   Dual objective     =             1.976487
Iteration:   957   Dual objective     =             2.154001
Iteration:  1155   Dual objective     =             2.275902
Iteration:  1508   Dual objective     =             2.336861
Iteration:  1814   Dual objective     =         16939.013733
Iteration:  2103   Dual objective     =        301091.973929
Iteration:  2398   Dual objective     =        527023.686032
Iteration:  2720   Dual objective     =        678084.541740
Iteration:  3055   Dual objective     =        772877.662803
Iteration:  3419   Dual objective     =        774822.079045
Iteration:  3747   Dual objective     =        775957.139028
Iteration:  4175   Dual objective     =        776553.576349
Removing perturbation.

Dual simplex solved model.


Dual simplex - Optimal:  Objective =  7.7661356249e+05
Solution time =    0.17 sec.  Iterations = 4523 (0)
Deterministic time = 96.43 ticks  (560.65 ticks/sec)

CPLEX> Solution written to file 'C:\Users\llavi\Desktop\test919\logs\tmpk3n__emr.cplex.sol'.
CPLEX> Exporting results... 
...storage offer mitigation file created
Converting model to MPEC...
...converted
NOTE: initial MIP solve with only storage competitive to get feasible solution
Solving...

Welcome to IBM(R) ILOG(R) CPLEX(R) Interactive Optimizer 12.8.0.0
  with Simplex, Mixed Integer & Barrier Optimizers
5725-A06 5725-A29 5724-Y48 5724-Y49 5724-Y54 5724-Y55 5655-Y21
Copyright IBM Corp. 1988, 2017.  All Rights Reserved.

Type 'help' for a list of available commands.
Type 'help' followed by a command name for more
information on commands.

CPLEX> Logfile 'cplex.log' closed.
Logfile 'C:\Users\llavi\Desktop\test919\logs\tmp64r_6pfd.cplex.log' open.
CPLEX> New value for parallel optimization mode: -1
CPLEX> New value for mixed integer optimality gap tolerance: 0.01
CPLEX> New value for integrality tolerance: 1e-09
CPLEX> New value for feasibility tolerance: 0.01
CPLEX> New value for deterministic time limit in ticks: 75000
CPLEX> Problem 'C:\Users\llavi\Desktop\test919\logs\tmpkmzpqo_b.pyomo.lp' read.
Read time = 0.28 sec. (13.96 ticks)
CPLEX> Problem name         : C:\Users\llavi\Desktop\test919\logs\tmpkmzpqo_b.pyomo.lp
Objective sense      : Maximize
Variables            :   53805  [Nneg: 1,  Box: 22000,  Free: 4464,
                                 Binary: 27340]
Objective nonzeros   :    9076
Linear constraints   :  123205  [Less: 41346,  Greater: 59096,  Equal: 22763]
  Nonzeros           :  291703
  RHS nonzeros       :   67487

Variables            : Min LB: -5000.000        Max UB: 1000000.       
Objective nonzeros   : Min   : 0.7833333        Max   : 2500.000       
Linear constraints   :
  Nonzeros           : Min   : 0.7833333        Max   : 1000000.       
  RHS nonzeros       : Min   : 0.7833333        Max   : 1000000.       
CPLEX> CPXPARAM_Simplex_Tolerances_Feasibility          0.01
CPXPARAM_Parallel                                -1
CPXPARAM_DetTimeLimit                            75000
CPXPARAM_MIP_Tolerances_MIPGap                   0.01
CPXPARAM_MIP_Tolerances_Integrality              1.0000000000000001e-09
Tried aggregator 3 times.
MIP Presolve eliminated 88831 rows and 19179 columns.
MIP Presolve added 3341 rows and 0 columns.
MIP Presolve modified 23811 coefficients.
Aggregator did 12918 substitutions.
Reduced MIP has 24797 rows, 21152 columns, and 70705 nonzeros.
Reduced MIP has 8362 binaries, 0 generals, 0 SOSs, and 0 indicators.
Presolve time = 0.33 sec. (167.88 ticks)
Probing fixed 402 vars, tightened 2885 bounds.
Probing time = 3.30 sec. (919.27 ticks)
Tried aggregator 2 times.
MIP Presolve eliminated 917 rows and 804 columns.
MIP Presolve modified 2232 coefficients.
Aggregator did 38 substitutions.
Reduced MIP has 23842 rows, 20310 columns, and 67953 nonzeros.
Reduced MIP has 7960 binaries, 0 generals, 0 SOSs, and 0 indicators.
Presolve time = 0.13 sec. (54.00 ticks)
Probing time = 0.06 sec. (15.69 ticks)
Clique table members: 6426.
MIP emphasis: balance optimality and feasibility.
MIP search method: dynamic search.
Parallel mode: opportunistic, using up to 4 threads.
Root relaxation solution time = 0.64 sec. (633.10 ticks)

        Nodes                                         Cuts/
   Node  Left     Objective  IInf  Best Integer    Best Bound    ItCnt     Gap

      0     0        0.0136   985                      0.0136     4382         
*     0+    0                            0.0000        0.0027              --- 

Root node processing (before b&c):
  Real time             =    9.61 sec. (3431.96 ticks)
Parallel b&c, 4 threads:
  Real time             =    0.00 sec. (0.00 ticks)
  Sync time (average)   =    0.00 sec.
  Wait time (average)   =    0.00 sec.
                          ------------
Total (root+branch&cut) =    9.61 sec. (3431.96 ticks)

Solution pool: 1 solution saved.

MIP - Integer optimal, tolerance (0.01/1e-06):  Objective =  3.4560798667e-09
Current MIP best bound =  6.6768279794e-09 (gap = 3.22075e-09, 0.00%)
Solution time =    9.61 sec.  Iterations = 4382  Nodes = 0 (1)
Deterministic time = 3432.12 ticks  (357.14 ticks/sec)

CPLEX> Incumbent solution written to file 'C:\Users\llavi\Desktop\test919\logs\tmpq6xll_6b.cplex.sol'.
CPLEX> NOTE: no warmstart specified for MIP iteration, default behavior is true
NOTE: resolving with all competitive generators using storage-only solution to warmstart
Solving...

Welcome to IBM(R) ILOG(R) CPLEX(R) Interactive Optimizer 12.8.0.0
  with Simplex, Mixed Integer & Barrier Optimizers
5725-A06 5725-A29 5724-Y48 5724-Y49 5724-Y54 5724-Y55 5655-Y21
Copyright IBM Corp. 1988, 2017.  All Rights Reserved.

Type 'help' for a list of available commands.
Type 'help' followed by a command name for more
information on commands.

CPLEX> Logfile 'cplex.log' closed.
Logfile 'C:\Users\llavi\Desktop\test919\logs\tmp05497luy.cplex.log' open.
CPLEX> New value for parallel optimization mode: -1
CPLEX> New value for mixed integer optimality gap tolerance: 0.01
CPLEX> New value for integrality tolerance: 1e-09
CPLEX> New value for feasibility tolerance: 0.01
CPLEX> New value for deterministic time limit in ticks: 75000
CPLEX> Problem 'C:\Users\llavi\Desktop\test919\logs\tmproiyo8qp.pyomo.lp' read.
Read time = 0.28 sec. (13.98 ticks)
CPLEX> MIP start file 'C:\Users\llavi\Desktop\test919\logs\tmpx3qm7anf.cplex.mst' read.
CPLEX> Problem name         : C:\Users\llavi\Desktop\test919\logs\tmproiyo8qp.pyomo.lp
Objective sense      : Maximize
Variables            :   54525  [Nneg: 1,  Box: 22720,  Free: 4464,
                                 Binary: 27340]
Objective nonzeros   :    9772
Linear constraints   :  123205  [Less: 41346,  Greater: 59096,  Equal: 22763]
  Nonzeros           :  291703
  RHS nonzeros       :   67487

Variables            : Min LB: -5000.000        Max UB: 1000000.       
Objective nonzeros   : Min   : 0.7833333        Max   : 2500.000       
Linear constraints   :
  Nonzeros           : Min   : 0.7833333        Max   : 1000000.       
  RHS nonzeros       : Min   : 0.7833333        Max   : 1000000.       
CPLEX> CPXPARAM_Simplex_Tolerances_Feasibility          0.01
CPXPARAM_Parallel                                -1
CPXPARAM_DetTimeLimit                            75000
CPXPARAM_MIP_Tolerances_MIPGap                   0.01
CPXPARAM_MIP_Tolerances_Integrality              1.0000000000000001e-09
Warning:  No solution found from 1 MIP starts.
Retaining values of one MIP start for possible repair.
Tried aggregator 3 times.
MIP Presolve eliminated 88831 rows and 19899 columns.
MIP Presolve added 3341 rows and 0 columns.
MIP Presolve modified 23811 coefficients.
Aggregator did 12918 substitutions.
Reduced MIP has 24797 rows, 21152 columns, and 70705 nonzeros.
Reduced MIP has 8362 binaries, 0 generals, 0 SOSs, and 0 indicators.
Presolve time = 0.30 sec. (168.25 ticks)
Probing fixed 402 vars, tightened 2885 bounds.
Probing time = 3.20 sec. (919.27 ticks)
Tried aggregator 2 times.
MIP Presolve eliminated 917 rows and 804 columns.
MIP Presolve modified 2232 coefficients.
Aggregator did 38 substitutions.
Reduced MIP has 23842 rows, 20310 columns, and 67953 nonzeros.
Reduced MIP has 7960 binaries, 0 generals, 0 SOSs, and 0 indicators.
Presolve time = 0.11 sec. (54.01 ticks)
Probing time = 0.06 sec. (15.69 ticks)
Clique table members: 6426.
MIP emphasis: balance optimality and feasibility.
MIP search method: dynamic search.
Parallel mode: opportunistic, using up to 4 threads.
Root relaxation solution time = 0.58 sec. (636.46 ticks)

        Nodes                                         Cuts/
   Node  Left     Objective  IInf  Best Integer    Best Bound    ItCnt     Gap

      0     0     7223.3343   993                   7223.3343     4428         
      0     0     7223.3088    18                    Cuts: 46     4449         
      0     0     7222.7690    19                Flowcuts: 14     4464         
      0     0     7222.7690    19                 Flowcuts: 2     4464         
Repair heuristic found nothing.
      0     3     7220.0782    15                   7222.1408     4467         
Elapsed time = 24.20 sec. (8567.79 ticks, tree = 0.05 MB, solutions = 0)
     84    57     7211.1632     7                   7218.2039     4579         
    177   118     7212.1277     3                   7218.2039     7869         
    236   178     7186.8851     2                   7218.2039     8252         
    296   216     7191.4844     4                   7218.2039     8491         
    356   268     7069.2300     7                   7218.2039     8941         
    398   316     7204.5065     2                   7218.2039     9350         
*   404+  292                         6883.2076     7218.2039             4.87%
    445   309        cutoff           6883.2076     7218.2039     9782    4.87%
    537   342     7201.6299     2     6883.2076     7218.2039    10020    4.87%
    685   452        cutoff           6883.2076     7218.2039    10607    4.87%
Elapsed time = 28.67 sec. (11488.79 ticks, tree = 4.16 MB, solutions = 1)
    796   509     7214.3565     7     6883.2076     7218.2039    10884    4.87%
    932   540     7209.4096     1     6883.2076     7218.2039    11093    4.87%
   1023   595     7209.4096     1     6883.2076     7218.2039    11263    4.87%
   1096   620     7209.4096     1     6883.2076     7218.2039    11502    4.87%
   1130   628        cutoff           6883.2076     7218.2039    11539    4.87%
*  1162   627      integral     0     7208.1222     7218.2039    11594    0.14%
   1211   649     7156.5878     2     7208.1222     7218.2039    11722    0.14%

Cover cuts applied:  1
Flow cuts applied:  41
Gomory fractional cuts applied:  12

Root node processing (before b&c):
  Real time             =   24.03 sec. (8549.77 ticks)
Parallel b&c, 4 threads:
  Real time             =   11.48 sec. (9089.87 ticks)
  Sync time (average)   =    0.07 sec.
  Wait time (average)   =    0.02 sec.
                          ------------
Total (root+branch&cut) =   35.52 sec. (17639.63 ticks)

Solution pool: 2 solutions saved.

MIP - Integer optimal, tolerance (0.01/1e-06):  Objective =  7.2081222157e+03
Current MIP best bound =  7.2182038786e+03 (gap = 10.0817, 0.14%)
Solution time =   35.52 sec.  Iterations = 12129  Nodes = 1221 (256)
Deterministic time = 17639.79 ticks  (496.67 ticks/sec)

CPLEX> Incumbent solution written to file 'C:\Users\llavi\Desktop\test919\logs\tmpsnl017ym.cplex.sol'.
CPLEX> Exporting results... 
